*SENSE:Maximize
NAME          MODEL
ROWS
 N  OBJ
 E  C0000000
 G  C0000001
 E  C0000002
 G  C0000003
 E  C0000004
 G  C0000005
 E  C0000006
 G  C0000007
 E  C0000008
 G  C0000009
 E  C0000010
 G  C0000011
 E  C0000012
 G  C0000013
 E  C0000014
 G  C0000015
COLUMNS
    X0000000  C0000015  -1.00000e+00
    X0000000  C0000013  -1.00000e+00
    X0000000  C0000011  -1.00000e+00
    X0000000  C0000009  -1.00000e+00
    X0000000  C0000001   0.00000e+00
    X0000000  C0000000   1.00000e+00
    X0000000  C0000003  -1.00000e+00
    X0000000  C0000005  -1.00000e+00
    X0000000  C0000007  -1.00000e+00
    X0000000  OBJ        1.00000e+00
    X0000001  C0000003   1.00000e+00
    X0000001  C0000002   3.20000e+01
    X0000002  C0000005   1.00000e+00
    X0000002  C0000004   1.00000e+00
    X0000003  C0000007   1.00000e+00
    X0000003  C0000006   1.00000e+00
    X0000004  C0000009   1.00000e+00
    X0000004  C0000008   1.00000e+00
    X0000005  C0000010   1.00000e+00
    X0000005  C0000011   1.00000e+00
    X0000006  C0000012   1.00000e+00
    X0000006  C0000013   1.00000e+00
    X0000007  C0000014   1.00000e+00
    X0000007  C0000015   1.00000e+00
    X0000008  C0000002  -1.00000e+00
    X0000009  C0000004  -1.00000e+00
    X0000010  C0000006  -1.00000e+00
    X0000011  C0000014  -1.00000e+00
RHS
    RHS       C0000000   0.00000e+00
    RHS       C0000001   0.00000e+00
    RHS       C0000002   3.10000e+01
    RHS       C0000003   0.00000e+00
    RHS       C0000004   0.00000e+00
    RHS       C0000005   0.00000e+00
    RHS       C0000006   0.00000e+00
    RHS       C0000007   0.00000e+00
    RHS       C0000008   0.00000e+00
    RHS       C0000009   0.00000e+00
    RHS       C0000010   0.00000e+00
    RHS       C0000011   0.00000e+00
    RHS       C0000012   0.00000e+00
    RHS       C0000013   0.00000e+00
    RHS       C0000014   0.00000e+00
    RHS       C0000015   0.00000e+00
BOUNDS
 UP BND       X0000000   1.00000e+00
 UP BND       X0000001   1.00000e+00
 UP BND       X0000002   1.00000e+00
 UP BND       X0000003   1.00000e+00
 UP BND       X0000004   1.00000e+00
 UP BND       X0000005   1.00000e+00
 UP BND       X0000006   1.00000e+00
 UP BND       X0000007   1.00000e+00
 UP BND       X0000008   1.00000e+00
 UP BND       X0000009   1.00000e+00
 UP BND       X0000010   1.00000e+00
 UP BND       X0000011   1.00000e+00
ENDATA
